logs/miss/ip/miss-05-15-1.lp
\ LP format - for model browsing. Use MPS format to capture full model detail.
Minimize
  z0 + z1 + z2 + z3 + z4 + z5
Subject To
 R0: x0,1_3 + x0,1_4 + x0,1_7 + x0,1_15 + x0,1_19 - z1 <= 0
 R1: x0,2_3 + x0,2_4 + x0,2_7 + x0,2_15 + x0,2_19 - z2 <= 0
 R2: x0,3_3 + x0,3_4 + x0,3_7 + x0,3_15 + x0,3_19 - z3 <= 0
 R3: x0,4_3 + x0,4_4 + x0,4_7 + x0,4_15 + x0,4_19 - z4 <= 0
 R4: x0,5_3 + x0,5_4 + x0,5_7 + x0,5_15 + x0,5_19 - z5 <= 0
 R5: x1,2_3 + x1,2_4 + x1,2_7 + x1,2_15 + x1,2_19 - z2 <= 0
 R6: x1,3_3 + x1,3_4 + x1,3_7 + x1,3_15 + x1,3_19 - z3 <= 0
 R7: x1,4_3 + x1,4_4 + x1,4_7 + x1,4_15 + x1,4_19 - z4 <= 0
 R8: x1,5_3 + x1,5_4 + x1,5_7 + x1,5_15 + x1,5_19 - z5 <= 0
 R9: x2,3_3 + x2,3_4 + x2,3_7 + x2,3_15 + x2,3_19 - z3 <= 0
 R10: x2,4_3 + x2,4_4 + x2,4_7 + x2,4_15 + x2,4_19 - z4 <= 0
 R11: x2,5_3 + x2,5_4 + x2,5_7 + x2,5_15 + x2,5_19 - z5 <= 0
 R12: x3,4_3 + x3,4_4 + x3,4_7 + x3,4_15 + x3,4_19 - z4 <= 0
 R13: x3,5_3 + x3,5_4 + x3,5_7 + x3,5_15 + x3,5_19 - z5 <= 0
 R14: x4,5_3 + x4,5_4 + x4,5_7 + x4,5_15 + x4,5_19 - z5 <= 0
 R15: x0,1_3 + x0,2_3 + x0,3_3 + x0,4_3 + x0,5_3 + x1,2_3 + x1,3_3 + x1,4_3
   + x1,5_3 + x2,3_3 + x2,4_3 + x2,5_3 + x3,4_3 + x3,5_3 + x4,5_3 = 1
 R16: x0,1_4 + x0,2_4 + x0,3_4 + x0,4_4 + x0,5_4 + x1,2_4 + x1,3_4 + x1,4_4
   + x1,5_4 + x2,3_4 + x2,4_4 + x2,5_4 + x3,4_4 + x3,5_4 + x4,5_4 = 1
 R17: x0,1_7 + x0,2_7 + x0,3_7 + x0,4_7 + x0,5_7 + x1,2_7 + x1,3_7 + x1,4_7
   + x1,5_7 + x2,3_7 + x2,4_7 + x2,5_7 + x3,4_7 + x3,5_7 + x4,5_7 = 1
 R18: x0,1_15 + x0,2_15 + x0,3_15 + x0,4_15 + x0,5_15 + x1,2_15 + x1,3_15
   + x1,4_15 + x1,5_15 + x2,3_15 + x2,4_15 + x2,5_15 + x3,4_15 + x3,5_15
   + x4,5_15 = 1
 R19: x0,1_19 + x0,2_19 + x0,3_19 + x0,4_19 + x0,5_19 + x1,2_19 + x1,3_19
   + x1,4_19 + x1,5_19 + x2,3_19 + x2,4_19 + x2,5_19 + x3,4_19 + x3,5_19
   + x4,5_19 = 1
 R20: p0 - p1 <= -1
 R21: - 3 x0,1_3 - p0 + p1 >= 0
 R22: 48 x0,1_3 - p0 + p1 <= 51
 R23: - 4 x0,1_4 - p0 + p1 >= 0
 R24: 48 x0,1_4 - p0 + p1 <= 52
 R25: - 7 x0,1_7 - p0 + p1 >= 0
 R26: 48 x0,1_7 - p0 + p1 <= 55
 R27: - 15 x0,1_15 - p0 + p1 >= 0
 R28: 48 x0,1_15 - p0 + p1 <= 63
 R29: - 19 x0,1_19 - p0 + p1 >= 0
 R30: 48 x0,1_19 - p0 + p1 <= 67
 R31: p0 - p2 <= -1
 R32: - 3 x0,2_3 - p0 + p2 >= 0
 R33: 48 x0,2_3 - p0 + p2 <= 51
 R34: - 4 x0,2_4 - p0 + p2 >= 0
 R35: 48 x0,2_4 - p0 + p2 <= 52
 R36: - 7 x0,2_7 - p0 + p2 >= 0
 R37: 48 x0,2_7 - p0 + p2 <= 55
 R38: - 15 x0,2_15 - p0 + p2 >= 0
 R39: 48 x0,2_15 - p0 + p2 <= 63
 R40: - 19 x0,2_19 - p0 + p2 >= 0
 R41: 48 x0,2_19 - p0 + p2 <= 67
 R42: p0 - p3 <= -1
 R43: - 3 x0,3_3 - p0 + p3 >= 0
 R44: 48 x0,3_3 - p0 + p3 <= 51
 R45: - 4 x0,3_4 - p0 + p3 >= 0
 R46: 48 x0,3_4 - p0 + p3 <= 52
 R47: - 7 x0,3_7 - p0 + p3 >= 0
 R48: 48 x0,3_7 - p0 + p3 <= 55
 R49: - 15 x0,3_15 - p0 + p3 >= 0
 R50: 48 x0,3_15 - p0 + p3 <= 63
 R51: - 19 x0,3_19 - p0 + p3 >= 0
 R52: 48 x0,3_19 - p0 + p3 <= 67
 R53: p0 - p4 <= -1
 R54: - 3 x0,4_3 - p0 + p4 >= 0
 R55: 48 x0,4_3 - p0 + p4 <= 51
 R56: - 4 x0,4_4 - p0 + p4 >= 0
 R57: 48 x0,4_4 - p0 + p4 <= 52
 R58: - 7 x0,4_7 - p0 + p4 >= 0
 R59: 48 x0,4_7 - p0 + p4 <= 55
 R60: - 15 x0,4_15 - p0 + p4 >= 0
 R61: 48 x0,4_15 - p0 + p4 <= 63
 R62: - 19 x0,4_19 - p0 + p4 >= 0
 R63: 48 x0,4_19 - p0 + p4 <= 67
 R64: p0 - p5 <= -1
 R65: - 3 x0,5_3 - p0 + p5 >= 0
 R66: 48 x0,5_3 - p0 + p5 <= 51
 R67: - 4 x0,5_4 - p0 + p5 >= 0
 R68: 48 x0,5_4 - p0 + p5 <= 52
 R69: - 7 x0,5_7 - p0 + p5 >= 0
 R70: 48 x0,5_7 - p0 + p5 <= 55
 R71: - 15 x0,5_15 - p0 + p5 >= 0
 R72: 48 x0,5_15 - p0 + p5 <= 63
 R73: - 19 x0,5_19 - p0 + p5 >= 0
 R74: 48 x0,5_19 - p0 + p5 <= 67
 R75: p1 - p2 <= -1
 R76: - 3 x1,2_3 - p1 + p2 >= 0
 R77: 48 x1,2_3 - p1 + p2 <= 51
 R78: - 4 x1,2_4 - p1 + p2 >= 0
 R79: 48 x1,2_4 - p1 + p2 <= 52
 R80: - 7 x1,2_7 - p1 + p2 >= 0
 R81: 48 x1,2_7 - p1 + p2 <= 55
 R82: - 15 x1,2_15 - p1 + p2 >= 0
 R83: 48 x1,2_15 - p1 + p2 <= 63
 R84: - 19 x1,2_19 - p1 + p2 >= 0
 R85: 48 x1,2_19 - p1 + p2 <= 67
 R86: p1 - p3 <= -1
 R87: - 3 x1,3_3 - p1 + p3 >= 0
 R88: 48 x1,3_3 - p1 + p3 <= 51
 R89: - 4 x1,3_4 - p1 + p3 >= 0
 R90: 48 x1,3_4 - p1 + p3 <= 52
 R91: - 7 x1,3_7 - p1 + p3 >= 0
 R92: 48 x1,3_7 - p1 + p3 <= 55
 R93: - 15 x1,3_15 - p1 + p3 >= 0
 R94: 48 x1,3_15 - p1 + p3 <= 63
 R95: - 19 x1,3_19 - p1 + p3 >= 0
 R96: 48 x1,3_19 - p1 + p3 <= 67
 R97: p1 - p4 <= -1
 R98: - 3 x1,4_3 - p1 + p4 >= 0
 R99: 48 x1,4_3 - p1 + p4 <= 51
 R100: - 4 x1,4_4 - p1 + p4 >= 0
 R101: 48 x1,4_4 - p1 + p4 <= 52
 R102: - 7 x1,4_7 - p1 + p4 >= 0
 R103: 48 x1,4_7 - p1 + p4 <= 55
 R104: - 15 x1,4_15 - p1 + p4 >= 0
 R105: 48 x1,4_15 - p1 + p4 <= 63
 R106: - 19 x1,4_19 - p1 + p4 >= 0
 R107: 48 x1,4_19 - p1 + p4 <= 67
 R108: p1 - p5 <= -1
 R109: - 3 x1,5_3 - p1 + p5 >= 0
 R110: 48 x1,5_3 - p1 + p5 <= 51
 R111: - 4 x1,5_4 - p1 + p5 >= 0
 R112: 48 x1,5_4 - p1 + p5 <= 52
 R113: - 7 x1,5_7 - p1 + p5 >= 0
 R114: 48 x1,5_7 - p1 + p5 <= 55
 R115: - 15 x1,5_15 - p1 + p5 >= 0
 R116: 48 x1,5_15 - p1 + p5 <= 63
 R117: - 19 x1,5_19 - p1 + p5 >= 0
 R118: 48 x1,5_19 - p1 + p5 <= 67
 R119: p2 - p3 <= -1
 R120: - 3 x2,3_3 - p2 + p3 >= 0
 R121: 48 x2,3_3 - p2 + p3 <= 51
 R122: - 4 x2,3_4 - p2 + p3 >= 0
 R123: 48 x2,3_4 - p2 + p3 <= 52
 R124: - 7 x2,3_7 - p2 + p3 >= 0
 R125: 48 x2,3_7 - p2 + p3 <= 55
 R126: - 15 x2,3_15 - p2 + p3 >= 0
 R127: 48 x2,3_15 - p2 + p3 <= 63
 R128: - 19 x2,3_19 - p2 + p3 >= 0
 R129: 48 x2,3_19 - p2 + p3 <= 67
 R130: p2 - p4 <= -1
 R131: - 3 x2,4_3 - p2 + p4 >= 0
 R132: 48 x2,4_3 - p2 + p4 <= 51
 R133: - 4 x2,4_4 - p2 + p4 >= 0
 R134: 48 x2,4_4 - p2 + p4 <= 52
 R135: - 7 x2,4_7 - p2 + p4 >= 0
 R136: 48 x2,4_7 - p2 + p4 <= 55
 R137: - 15 x2,4_15 - p2 + p4 >= 0
 R138: 48 x2,4_15 - p2 + p4 <= 63
 R139: - 19 x2,4_19 - p2 + p4 >= 0
 R140: 48 x2,4_19 - p2 + p4 <= 67
 R141: p2 - p5 <= -1
 R142: - 3 x2,5_3 - p2 + p5 >= 0
 R143: 48 x2,5_3 - p2 + p5 <= 51
 R144: - 4 x2,5_4 - p2 + p5 >= 0
 R145: 48 x2,5_4 - p2 + p5 <= 52
 R146: - 7 x2,5_7 - p2 + p5 >= 0
 R147: 48 x2,5_7 - p2 + p5 <= 55
 R148: - 15 x2,5_15 - p2 + p5 >= 0
 R149: 48 x2,5_15 - p2 + p5 <= 63
 R150: - 19 x2,5_19 - p2 + p5 >= 0
 R151: 48 x2,5_19 - p2 + p5 <= 67
 R152: p3 - p4 <= -1
 R153: - 3 x3,4_3 - p3 + p4 >= 0
 R154: 48 x3,4_3 - p3 + p4 <= 51
 R155: - 4 x3,4_4 - p3 + p4 >= 0
 R156: 48 x3,4_4 - p3 + p4 <= 52
 R157: - 7 x3,4_7 - p3 + p4 >= 0
 R158: 48 x3,4_7 - p3 + p4 <= 55
 R159: - 15 x3,4_15 - p3 + p4 >= 0
 R160: 48 x3,4_15 - p3 + p4 <= 63
 R161: - 19 x3,4_19 - p3 + p4 >= 0
 R162: 48 x3,4_19 - p3 + p4 <= 67
 R163: p3 - p5 <= -1
 R164: - 3 x3,5_3 - p3 + p5 >= 0
 R165: 48 x3,5_3 - p3 + p5 <= 51
 R166: - 4 x3,5_4 - p3 + p5 >= 0
 R167: 48 x3,5_4 - p3 + p5 <= 52
 R168: - 7 x3,5_7 - p3 + p5 >= 0
 R169: 48 x3,5_7 - p3 + p5 <= 55
 R170: - 15 x3,5_15 - p3 + p5 >= 0
 R171: 48 x3,5_15 - p3 + p5 <= 63
 R172: - 19 x3,5_19 - p3 + p5 >= 0
 R173: 48 x3,5_19 - p3 + p5 <= 67
 R174: p4 - p5 <= -1
 R175: - 3 x4,5_3 - p4 + p5 >= 0
 R176: 48 x4,5_3 - p4 + p5 <= 51
 R177: - 4 x4,5_4 - p4 + p5 >= 0
 R178: 48 x4,5_4 - p4 + p5 <= 52
 R179: - 7 x4,5_7 - p4 + p5 >= 0
 R180: 48 x4,5_7 - p4 + p5 <= 55
 R181: - 15 x4,5_15 - p4 + p5 >= 0
 R182: 48 x4,5_15 - p4 + p5 <= 63
 R183: - 19 x4,5_19 - p4 + p5 >= 0
 R184: 48 x4,5_19 - p4 + p5 <= 67
 R185: z0 - z1 >= 0
 R186: z1 - z2 >= 0
 R187: z2 - z3 >= 0
 R188: z3 - z4 >= 0
 R189: z4 - z5 >= 0
Bounds
Binaries
 x0,1_3 x0,1_4 x0,1_7 x0,1_15 x0,1_19 x0,2_3 x0,2_4 x0,2_7 x0,2_15 x0,2_19
 x0,3_3 x0,3_4 x0,3_7 x0,3_15 x0,3_19 x0,4_3 x0,4_4 x0,4_7 x0,4_15 x0,4_19
 x0,5_3 x0,5_4 x0,5_7 x0,5_15 x0,5_19 x1,2_3 x1,2_4 x1,2_7 x1,2_15 x1,2_19
 x1,3_3 x1,3_4 x1,3_7 x1,3_15 x1,3_19 x1,4_3 x1,4_4 x1,4_7 x1,4_15 x1,4_19
 x1,5_3 x1,5_4 x1,5_7 x1,5_15 x1,5_19 x2,3_3 x2,3_4 x2,3_7 x2,3_15 x2,3_19
 x2,4_3 x2,4_4 x2,4_7 x2,4_15 x2,4_19 x2,5_3 x2,5_4 x2,5_7 x2,5_15 x2,5_19
 x3,4_3 x3,4_4 x3,4_7 x3,4_15 x3,4_19 x3,5_3 x3,5_4 x3,5_7 x3,5_15 x3,5_19
 x4,5_3 x4,5_4 x4,5_7 x4,5_15 x4,5_19 z0 z1 z2 z3 z4 z5
Generals
 p0 p1 p2 p3 p4 p5
End
