logs/miss/ip/miss-05-15-1.sol
# Objective value = 4
x0,1_3 1
x0,1_4 0
x0,1_7 0
x0,1_15 0
x0,1_19 0
x0,2_3 0
x0,2_4 0
x0,2_7 1
x0,2_15 0
x0,2_19 0
x0,3_3 0
x0,3_4 0
x0,3_7 0
x0,3_15 0
x0,3_19 0
x0,4_3 0
x0,4_4 0
x0,4_7 0
x0,4_15 0
x0,4_19 0
x0,5_3 0
x0,5_4 0
x0,5_7 0
x0,5_15 0
x0,5_19 0
x1,2_3 0
x1,2_4 1
x1,2_7 0
x1,2_15 0
x1,2_19 0
x1,3_3 0
x1,3_4 0
x1,3_7 0
x1,3_15 0
x1,3_19 1
x1,4_3 0
x1,4_4 0
x1,4_7 0
x1,4_15 0
x1,4_19 0
x1,5_3 0
x1,5_4 0
x1,5_7 0
x1,5_15 0
x1,5_19 0
x2,3_3 0
x2,3_4 0
x2,3_7 0
x2,3_15 1
x2,3_19 0
x2,4_3 0
x2,4_4 0
x2,4_7 0
x2,4_15 0
x2,4_19 0
x2,5_3 0
x2,5_4 0
x2,5_7 0
x2,5_15 0
x2,5_19 0
x3,4_3 0
x3,4_4 0
x3,4_7 0
x3,4_15 0
x3,4_19 0
x3,5_3 0
x3,5_4 0
x3,5_7 0
x3,5_15 0
x3,5_19 0
x4,5_3 0
x4,5_4 0
x4,5_7 0
x4,5_15 0
x4,5_19 0
z0 1
z1 1
z2 1
z3 1
z4 0
z5 0
p0 0
p1 3
p2 7
p3 22
p4 23
p5 24
